10
45
0 1 78
0 2 79
0 3 61
0 4 47
0 5 66
0 6 35
0 7 106
0 8 31
0 9 55
1 2 157
1 3 29
1 4 75
1 5 58
1 6 107
1 7 82
1 8 47
1 9 23
2 3 140
2 4 100
2 5 99
2 6 50
2 7 89
2 8 110
2 9 134
3 4 104
3 5 41
3 6 90
3 7 65
3 8 52
3 9 16
4 5 113
4 6 82
4 7 153
4 8 52
4 9 88
5 6 49
5 7 40
5 8 61
5 9 35
6 7 71
6 8 60
6 9 84
7 8 101
7 9 65
8 9 36
